0001 8
0002 4
0003 10
0004 12
0005 20
0006 17
0007 24
0008 9
0009 5
0010 4
0011 14
0012 10
0013 18
0014 7
0015 0
0016 8
0017 4
0018 1
0019 19
0020 5
0021 17
0022 23
0023 9
0024 11
0025 11
0026 2
0027 22
0028 8
0029 13
0030 24
0031 4
0032 8
0033 19
0034 11
0035 17
0036 5
0037 16
0038 2
0039 9
0040 21
0041 20
0042 21
0043 11
0044 5
0045 16
0046 0
0047 19
0048 2
0049 7
0050 3
0051 20
0052 6
0053 19
0054 18
0055 4
0056 3
0057 13
0058 14
0059 0
0060 2
0061 1
0062 0
0063 16
0064 2
0065 12
0066 23
0067 3
0068 3
0069 12
0070 5
0071 9
0072 22
0073 1
0074 22
0075 6
0076 16
0077 22
0078 8
0079 10
0080 19
0081 1
0082 18
0083 20
0084 23
0085 9
0086 7
0087 5
0088 11
0089 16
0090 9
0091 3
0092 2
0093 0
0094 6
0095 15
0096 7
0097 20
0098 18
0099 22
0100 24
0101 11
0102 6
0103 2
0104 0
0105 10
0106 12
0107 23
0108 8
0109 17
0110 12
0111 24
0112 1
0113 10
0114 17
0115 16
0116 14
0117 8
0118 19
0119 2
0120 4
0121 1
0122 4
0123 18
0124 10
0125 20
0126 1
0127 3
0128 19
0129 2
0130 24
0131 5
0132 10
0133 15
0134 19
0135 4
0136 11
0137 8
0138 0
0139 10
0140 17
0141 6
0142 23
0143 17
0144 7
0145 8
0146 14
0147 19
0148 3
0149 9
0150 22
0151 14
0152 1
0153 21
0154 20
0155 20
0156 9
0157 13
0158 20
0159 24
0160 18
0161 10
0162 1
0163 16
0164 2
0165 13
0166 11
0167 19
0168 12
0169 6
0170 4
0171 4
0172 17
0173 3
0174 13
0175 17
0176 10
0177 5
0178 16
0179 3
0180 24
0181 0
0182 14
0183 19
0184 3
0185 22
0186 0
0187 9
0188 23
0189 6
0190 15
0191 22
0192 17
0193 18
0194 23
0195 5
0196 4
0197 8
0198 19
0199 12
0200 17
0201 24
0202 0
0203 7
0204 22
0205 17
0206 19
0207 10
0208 5
0209 16
0210 14
0211 3
0212 15
0213 12
0214 0
0215 0
0216 0
0217 22
0218 12
0219 16
0220 5
0221 13
0222 23
0223 7
0224 20
0225 1
0226 3
0227 11
0228 8
0229 12
0230 16
0231 6
0232 15
0233 11
0234 5
0235 5
0236 2
0237 20
0238 0
0239 5
0240 1
0241 4
0242 16
0243 19
0244 9
0245 11
0246 11
0247 24
0248 8
0249 22
0250 17
0251 22
0252 11
0253 15
0254 4
0255 6
0256 12
0257 14
0258 16
0259 5
0260 13
0261 19
